language Essence 1.3
$ generated by bacp-gen.pl with seed 1323586017
$ edge probability 0.0373
$ course loads in range 2..8
letting n_courses be 172
letting n_periods be 26
letting load_per_period_lb be 5
letting load_per_period_ub be 49
letting courses_per_period_lb be 3
letting courses_per_period_ub be 10
letting course_load be function(
1 --> 8,
2 --> 5,
3 --> 6,
4 --> 2,
5 --> 6,
6 --> 8,
7 --> 7,
8 --> 8,
9 --> 2,
10 --> 2,
11 --> 4,
12 --> 7,
13 --> 4,
14 --> 2,
15 --> 3,
16 --> 5,
17 --> 8,
18 --> 2,
19 --> 4,
20 --> 8,
21 --> 5,
22 --> 5,
23 --> 4,
24 --> 3,
25 --> 7,
26 --> 6,
27 --> 6,
28 --> 4,
29 --> 7,
30 --> 4,
31 --> 5,
32 --> 2,
33 --> 6,
34 --> 7,
35 --> 7,
36 --> 5,
37 --> 7,
38 --> 4,
39 --> 7,
40 --> 5,
41 --> 6,
42 --> 8,
43 --> 5,
44 --> 5,
45 --> 4,
46 --> 4,
47 --> 6,
48 --> 5,
49 --> 3,
50 --> 4,
51 --> 6,
52 --> 5,
53 --> 6,
54 --> 3,
55 --> 8,
56 --> 3,
57 --> 4,
58 --> 5,
59 --> 6,
60 --> 8,
61 --> 5,
62 --> 3,
63 --> 7,
64 --> 5,
65 --> 6,
66 --> 8,
67 --> 5,
68 --> 3,
69 --> 3,
70 --> 5,
71 --> 2,
72 --> 5,
73 --> 7,
74 --> 3,
75 --> 2,
76 --> 5,
77 --> 8,
78 --> 5,
79 --> 6,
80 --> 3,
81 --> 7,
82 --> 4,
83 --> 6,
84 --> 3,
85 --> 6,
86 --> 4,
87 --> 5,
88 --> 4,
89 --> 3,
90 --> 4,
91 --> 7,
92 --> 8,
93 --> 3,
94 --> 7,
95 --> 7,
96 --> 7,
97 --> 4,
98 --> 3,
99 --> 6,
100 --> 7,
101 --> 5,
102 --> 2,
103 --> 7,
104 --> 6,
105 --> 2,
106 --> 4,
107 --> 3,
108 --> 8,
109 --> 4,
110 --> 5,
111 --> 2,
112 --> 2,
113 --> 4,
114 --> 3,
115 --> 7,
116 --> 4,
117 --> 7,
118 --> 2,
119 --> 7,
120 --> 7,
121 --> 7,
122 --> 3,
123 --> 7,
124 --> 4,
125 --> 5,
126 --> 5,
127 --> 3,
128 --> 6,
129 --> 2,
130 --> 4,
131 --> 4,
132 --> 6,
133 --> 2,
134 --> 7,
135 --> 3,
136 --> 5,
137 --> 7,
138 --> 2,
139 --> 8,
140 --> 4,
141 --> 7,
142 --> 3,
143 --> 4,
144 --> 2,
145 --> 6,
146 --> 5,
147 --> 4,
148 --> 7,
149 --> 7,
150 --> 3,
151 --> 4,
152 --> 3,
153 --> 5,
154 --> 4,
155 --> 4,
156 --> 4,
157 --> 2,
158 --> 4,
159 --> 6,
160 --> 7,
161 --> 6,
162 --> 7,
163 --> 2,
164 --> 3,
165 --> 6,
166 --> 5,
167 --> 7,
168 --> 5,
169 --> 6,
170 --> 2,
171 --> 4,
172 --> 4
)
letting prerequisite be relation (
(14,43),
(33,44),
(11,45),
(4,46),
(29,47),
(26,48),
(27,49),
(24,50),
(26,51),
(40,52),
(41,53),
(31,54),
(10,55),
(9,56),
(5,57),
(32,58),
(29,59),
(18,60),
(25,61),
(5,62),
(32,63),
(21,64),
(6,65),
(41,66),
(26,67),
(40,68),
(37,69),
(1,70),
(5,71),
(42,72),
(22,73),
(16,74),
(8,75),
(6,76),
(38,77),
(14,78),
(37,79),
(1,80),
(4,81),
(35,82),
(28,83),
(39,84),
(21,85),
(38,86),
(13,87),
(6,88),
(17,89),
(1,90),
(38,91),
(1,92),
(32,93),
(10,94),
(26,95),
(6,96),
(27,97),
(30,98),
(32,99),
(41,100),
(6,101),
(23,102),
(2,103),
(21,104),
(36,105),
(13,106),
(23,107),
(36,108),
(9,109),
(10,110),
(25,111),
(47,112),
(45,113),
(64,114),
(100,115),
(43,116),
(49,117),
(76,118),
(56,119),
(43,120),
(48,121),
(104,122),
(63,123),
(52,124),
(102,125),
(76,126),
(57,127),
(77,128),
(98,129),
(103,130),
(91,131),
(71,132),
(75,133),
(50,134),
(49,135),
(102,136),
(90,137),
(78,138),
(44,139),
(101,140),
(94,141),
(108,142),
(69,143),
(72,144),
(57,145),
(82,146),
(106,147),
(62,148),
(65,149),
(76,150),
(97,151),
(43,152),
(60,153),
(44,154),
(55,155),
(69,156),
(76,157),
(99,158),
(98,159),
(47,160),
(94,161),
(57,162),
(88,163),
(60,164),
(106,165),
(73,166),
(80,167),
(58,168),
(102,169),
(51,170),
(55,171),
(106,172),
(20,105),
(78,168),
(82,153),
(26,69),
(26,56),
(105,124),
(83,168),
(47,146),
(14,85),
(40,59),
(40,50),
(97,147),
(27,81),
(27,85),
(42,50),
(27,93),
(27,56),
(12,105),
(55,170),
(97,156),
(86,147),
(7,65),
(100,121),
(42,81),
(105,163),
(26,43),
(72,124),
(41,78),
(109,133),
(98,117),
(69,162),
(48,142),
(86,114),
(34,48),
(32,62),
(31,65),
(81,119),
(93,131),
(103,139),
(20,78),
(35,87),
(30,52),
(102,166),
(69,127),
(30,68),
(25,109),
(55,147),
(47,116),
(80,117),
(2,72),
(51,148),
(19,104),
(75,137),
(78,152),
(18,106),
(82,161),
(3,106),
(38,48),
(31,97),
(104,165),
(28,67),
(25,57),
(35,64),
(16,87),
(2,100),
(82,148),
(38,45),
(93,119),
(50,170),
(7,106),
(84,168),
(41,65),
(33,46),
(45,171),
(1,87),
(92,114),
(39,97),
(109,161),
(5,53),
(15,90),
(35,79),
(99,160),
(16,76),
(64,154),
(17,98),
(38,93),
(78,158),
(94,124),
(24,86),
(105,157),
(10,63),
(83,140),
(64,144),
(106,145),
(22,62),
(100,138),
(58,112),
(44,160),
(85,148),
(95,127),
(28,68),
(8,81),
(64,119),
(36,67),
(83,135),
(38,66),
(3,96),
(37,111),
(55,120),
(89,143),
(13,53),
(53,122),
(57,167),
(39,110),
(4,93),
(87,155),
(84,163),
(16,71),
(34,88),
(24,100),
(19,52),
(36,51),
(88,134),
(105,133),
(83,124),
(75,149),
(24,54),
(80,161),
(105,148),
(107,168),
(4,63),
(6,64),
(31,109),
(37,77),
(32,106)
)

